NAME : tsp40_3.197.tour
COMMENT : Length = 197
COMMENT : Found by LKH [Keld Helsgaun]
TYPE : TOUR
DIMENSION : 40
TOUR_SECTION
1
28
29
10
3
37
25
22
40
4
17
24
15
14
6
33
35
20
8
30
31
26
9
32
11
23
21
19
39
2
13
18
38
12
16
34
7
5
27
36
-1
EOF
